; printing sygus problem  

(set-logic LIA)
(declare-var NCK_NEQ_741360_1981-20-1981-42 Bool)

(declare-var NCK_NEQ_505948_1981-20-1981-42 Bool)

(synth-fun __SYNTHFUN_f_1981-20-1981-42((NCK_NEQ_741360 Bool)(NCK_NEQ_505948 Bool)) Bool
((NTbool Bool)(NTInt Int))
((NTbool Bool (NCK_NEQ_741360 NCK_NEQ_505948 (not NTbool) (and NTbool NTbool) (or NTbool NTbool) (ite NTbool NTbool NTbool) (= NTInt NTInt) (< NTInt NTInt) (> NTInt NTInt) ))
(NTInt Int (0 1 (- NTInt) (+ NTInt NTInt) (- NTInt NTInt) (ite NTbool NTInt NTInt) ))
)
)

(constraint (or (and (=> (and (= NCK_NEQ_741360_1981-20-1981-42 true) (= NCK_NEQ_505948_1981-20-1981-42 true)) (= (__SYNTHFUN_f_1981-20-1981-42 NCK_NEQ_741360_1981-20-1981-42 NCK_NEQ_505948_1981-20-1981-42 ) false)) (and (=> (and (= NCK_NEQ_741360_1981-20-1981-42 true) (= NCK_NEQ_505948_1981-20-1981-42 true)) (= (__SYNTHFUN_f_1981-20-1981-42 NCK_NEQ_741360_1981-20-1981-42 NCK_NEQ_505948_1981-20-1981-42 ) false)) (and (=> (and (= NCK_NEQ_505948_1981-20-1981-42 true) (= NCK_NEQ_741360_1981-20-1981-42 true)) (= (__SYNTHFUN_f_1981-20-1981-42 NCK_NEQ_741360_1981-20-1981-42 NCK_NEQ_505948_1981-20-1981-42 ) false)) (and (=> (and (= NCK_NEQ_505948_1981-20-1981-42 true) (= NCK_NEQ_741360_1981-20-1981-42 true)) (= (__SYNTHFUN_f_1981-20-1981-42 NCK_NEQ_741360_1981-20-1981-42 NCK_NEQ_505948_1981-20-1981-42 ) false)) (=> (and (= NCK_NEQ_741360_1981-20-1981-42 true) (= NCK_NEQ_505948_1981-20-1981-42 true)) (= (__SYNTHFUN_f_1981-20-1981-42 NCK_NEQ_741360_1981-20-1981-42 NCK_NEQ_505948_1981-20-1981-42 ) true)))))) (or (and (=> (and (= NCK_NEQ_741360_1981-20-1981-42 true) (= NCK_NEQ_505948_1981-20-1981-42 true)) (= (__SYNTHFUN_f_1981-20-1981-42 NCK_NEQ_741360_1981-20-1981-42 NCK_NEQ_505948_1981-20-1981-42 ) false)) (and (=> (and (= NCK_NEQ_741360_1981-20-1981-42 true) (= NCK_NEQ_505948_1981-20-1981-42 true)) (= (__SYNTHFUN_f_1981-20-1981-42 NCK_NEQ_741360_1981-20-1981-42 NCK_NEQ_505948_1981-20-1981-42 ) false)) (and (=> (and (= NCK_NEQ_505948_1981-20-1981-42 true) (= NCK_NEQ_741360_1981-20-1981-42 true)) (= (__SYNTHFUN_f_1981-20-1981-42 NCK_NEQ_741360_1981-20-1981-42 NCK_NEQ_505948_1981-20-1981-42 ) false)) (and (=> (and (= NCK_NEQ_505948_1981-20-1981-42 true) (= NCK_NEQ_741360_1981-20-1981-42 true)) (= (__SYNTHFUN_f_1981-20-1981-42 NCK_NEQ_741360_1981-20-1981-42 NCK_NEQ_505948_1981-20-1981-42 ) false)) (and (=> (and (= NCK_NEQ_505948_1981-20-1981-42 true) (= NCK_NEQ_741360_1981-20-1981-42 true)) (= (__SYNTHFUN_f_1981-20-1981-42 NCK_NEQ_741360_1981-20-1981-42 NCK_NEQ_505948_1981-20-1981-42 ) false)) (=> (and (= NCK_NEQ_741360_1981-20-1981-42 true) (= NCK_NEQ_505948_1981-20-1981-42 true)) (= (__SYNTHFUN_f_1981-20-1981-42 NCK_NEQ_741360_1981-20-1981-42 NCK_NEQ_505948_1981-20-1981-42 ) false))))))) (or (and (=> (and (= NCK_NEQ_741360_1981-20-1981-42 true) (= NCK_NEQ_505948_1981-20-1981-42 true)) (= (__SYNTHFUN_f_1981-20-1981-42 NCK_NEQ_741360_1981-20-1981-42 NCK_NEQ_505948_1981-20-1981-42 ) false)) (and (=> (and (= NCK_NEQ_741360_1981-20-1981-42 true) (= NCK_NEQ_505948_1981-20-1981-42 true)) (= (__SYNTHFUN_f_1981-20-1981-42 NCK_NEQ_741360_1981-20-1981-42 NCK_NEQ_505948_1981-20-1981-42 ) false)) (and (=> (and (= NCK_NEQ_505948_1981-20-1981-42 true) (= NCK_NEQ_741360_1981-20-1981-42 true)) (= (__SYNTHFUN_f_1981-20-1981-42 NCK_NEQ_741360_1981-20-1981-42 NCK_NEQ_505948_1981-20-1981-42 ) false)) (and (=> (and (= NCK_NEQ_505948_1981-20-1981-42 true) (= NCK_NEQ_741360_1981-20-1981-42 true)) (= (__SYNTHFUN_f_1981-20-1981-42 NCK_NEQ_741360_1981-20-1981-42 NCK_NEQ_505948_1981-20-1981-42 ) true)) (and (=> (and (= NCK_NEQ_505948_1981-20-1981-42 true) (= NCK_NEQ_741360_1981-20-1981-42 true)) (= (__SYNTHFUN_f_1981-20-1981-42 NCK_NEQ_741360_1981-20-1981-42 NCK_NEQ_505948_1981-20-1981-42 ) false)) (=> (and (= NCK_NEQ_741360_1981-20-1981-42 true) (= NCK_NEQ_505948_1981-20-1981-42 true)) (= (__SYNTHFUN_f_1981-20-1981-42 NCK_NEQ_741360_1981-20-1981-42 NCK_NEQ_505948_1981-20-1981-42 ) false))))))) (and (=> (and (= NCK_NEQ_741360_1981-20-1981-42 true) (= NCK_NEQ_505948_1981-20-1981-42 true)) (= (__SYNTHFUN_f_1981-20-1981-42 NCK_NEQ_741360_1981-20-1981-42 NCK_NEQ_505948_1981-20-1981-42 ) false)) (and (=> (and (= NCK_NEQ_741360_1981-20-1981-42 true) (= NCK_NEQ_505948_1981-20-1981-42 true)) (= (__SYNTHFUN_f_1981-20-1981-42 NCK_NEQ_741360_1981-20-1981-42 NCK_NEQ_505948_1981-20-1981-42 ) true)) (and (=> (and (= NCK_NEQ_505948_1981-20-1981-42 true) (= NCK_NEQ_741360_1981-20-1981-42 true)) (= (__SYNTHFUN_f_1981-20-1981-42 NCK_NEQ_741360_1981-20-1981-42 NCK_NEQ_505948_1981-20-1981-42 ) false)) (=> (and (= NCK_NEQ_505948_1981-20-1981-42 true) (= NCK_NEQ_741360_1981-20-1981-42 true)) (= (__SYNTHFUN_f_1981-20-1981-42 NCK_NEQ_741360_1981-20-1981-42 NCK_NEQ_505948_1981-20-1981-42 ) false)))))))))
(constraint (or (and (=> (and (= NCK_NEQ_741360_1981-20-1981-42 true) (= NCK_NEQ_505948_1981-20-1981-42 true)) (= (__SYNTHFUN_f_1981-20-1981-42 NCK_NEQ_741360_1981-20-1981-42 NCK_NEQ_505948_1981-20-1981-42 ) false)) (and (=> (and (= NCK_NEQ_741360_1981-20-1981-42 true) (= NCK_NEQ_505948_1981-20-1981-42 true)) (= (__SYNTHFUN_f_1981-20-1981-42 NCK_NEQ_741360_1981-20-1981-42 NCK_NEQ_505948_1981-20-1981-42 ) false)) (and (=> (and (= NCK_NEQ_505948_1981-20-1981-42 true) (= NCK_NEQ_741360_1981-20-1981-42 true)) (= (__SYNTHFUN_f_1981-20-1981-42 NCK_NEQ_741360_1981-20-1981-42 NCK_NEQ_505948_1981-20-1981-42 ) false)) (and (=> (and (= NCK_NEQ_505948_1981-20-1981-42 true) (= NCK_NEQ_741360_1981-20-1981-42 true)) (= (__SYNTHFUN_f_1981-20-1981-42 NCK_NEQ_741360_1981-20-1981-42 NCK_NEQ_505948_1981-20-1981-42 ) false)) (=> (and (= NCK_NEQ_741360_1981-20-1981-42 true) (= NCK_NEQ_505948_1981-20-1981-42 true)) (= (__SYNTHFUN_f_1981-20-1981-42 NCK_NEQ_741360_1981-20-1981-42 NCK_NEQ_505948_1981-20-1981-42 ) true)))))) (or (and (=> (and (= NCK_NEQ_505948_1981-20-1981-42 true) (= NCK_NEQ_741360_1981-20-1981-42 true)) (= (__SYNTHFUN_f_1981-20-1981-42 NCK_NEQ_741360_1981-20-1981-42 NCK_NEQ_505948_1981-20-1981-42 ) true)) (and (=> (and (= NCK_NEQ_741360_1981-20-1981-42 true) (= NCK_NEQ_505948_1981-20-1981-42 true)) (= (__SYNTHFUN_f_1981-20-1981-42 NCK_NEQ_741360_1981-20-1981-42 NCK_NEQ_505948_1981-20-1981-42 ) false)) (and (=> (and (= NCK_NEQ_741360_1981-20-1981-42 true) (= NCK_NEQ_505948_1981-20-1981-42 true)) (= (__SYNTHFUN_f_1981-20-1981-42 NCK_NEQ_741360_1981-20-1981-42 NCK_NEQ_505948_1981-20-1981-42 ) false)) (and (=> (and (= NCK_NEQ_505948_1981-20-1981-42 true) (= NCK_NEQ_741360_1981-20-1981-42 true)) (= (__SYNTHFUN_f_1981-20-1981-42 NCK_NEQ_741360_1981-20-1981-42 NCK_NEQ_505948_1981-20-1981-42 ) false)) (and (=> (and (= NCK_NEQ_505948_1981-20-1981-42 true) (= NCK_NEQ_741360_1981-20-1981-42 true)) (= (__SYNTHFUN_f_1981-20-1981-42 NCK_NEQ_741360_1981-20-1981-42 NCK_NEQ_505948_1981-20-1981-42 ) false)) (and (=> (and (= NCK_NEQ_505948_1981-20-1981-42 true) (= NCK_NEQ_741360_1981-20-1981-42 true)) (= (__SYNTHFUN_f_1981-20-1981-42 NCK_NEQ_741360_1981-20-1981-42 NCK_NEQ_505948_1981-20-1981-42 ) false)) (=> (and (= NCK_NEQ_741360_1981-20-1981-42 true) (= NCK_NEQ_505948_1981-20-1981-42 true)) (= (__SYNTHFUN_f_1981-20-1981-42 NCK_NEQ_741360_1981-20-1981-42 NCK_NEQ_505948_1981-20-1981-42 ) false)))))))) (or (and (=> (and (= NCK_NEQ_741360_1981-20-1981-42 true) (= NCK_NEQ_505948_1981-20-1981-42 true)) (= (__SYNTHFUN_f_1981-20-1981-42 NCK_NEQ_741360_1981-20-1981-42 NCK_NEQ_505948_1981-20-1981-42 ) false)) (and (=> (and (= NCK_NEQ_505948_1981-20-1981-42 true) (= NCK_NEQ_741360_1981-20-1981-42 true)) (= (__SYNTHFUN_f_1981-20-1981-42 NCK_NEQ_741360_1981-20-1981-42 NCK_NEQ_505948_1981-20-1981-42 ) false)) (and (=> (and (= NCK_NEQ_741360_1981-20-1981-42 true) (= NCK_NEQ_505948_1981-20-1981-42 true)) (= (__SYNTHFUN_f_1981-20-1981-42 NCK_NEQ_741360_1981-20-1981-42 NCK_NEQ_505948_1981-20-1981-42 ) false)) (and (=> (and (= NCK_NEQ_741360_1981-20-1981-42 true) (= NCK_NEQ_505948_1981-20-1981-42 true)) (= (__SYNTHFUN_f_1981-20-1981-42 NCK_NEQ_741360_1981-20-1981-42 NCK_NEQ_505948_1981-20-1981-42 ) false)) (and (=> (and (= NCK_NEQ_505948_1981-20-1981-42 true) (= NCK_NEQ_741360_1981-20-1981-42 true)) (= (__SYNTHFUN_f_1981-20-1981-42 NCK_NEQ_741360_1981-20-1981-42 NCK_NEQ_505948_1981-20-1981-42 ) false)) (and (=> (and (= NCK_NEQ_505948_1981-20-1981-42 true) (= NCK_NEQ_741360_1981-20-1981-42 true)) (= (__SYNTHFUN_f_1981-20-1981-42 NCK_NEQ_741360_1981-20-1981-42 NCK_NEQ_505948_1981-20-1981-42 ) false)) (and (=> (and (= NCK_NEQ_505948_1981-20-1981-42 true) (= NCK_NEQ_741360_1981-20-1981-42 true)) (= (__SYNTHFUN_f_1981-20-1981-42 NCK_NEQ_741360_1981-20-1981-42 NCK_NEQ_505948_1981-20-1981-42 ) false)) (=> (and (= NCK_NEQ_741360_1981-20-1981-42 true) (= NCK_NEQ_505948_1981-20-1981-42 true)) (= (__SYNTHFUN_f_1981-20-1981-42 NCK_NEQ_741360_1981-20-1981-42 NCK_NEQ_505948_1981-20-1981-42 ) false))))))))) (or (and (=> (and (= NCK_NEQ_741360_1981-20-1981-42 true) (= NCK_NEQ_505948_1981-20-1981-42 true)) (= (__SYNTHFUN_f_1981-20-1981-42 NCK_NEQ_741360_1981-20-1981-42 NCK_NEQ_505948_1981-20-1981-42 ) false)) (and (=> (and (= NCK_NEQ_741360_1981-20-1981-42 true) (= NCK_NEQ_505948_1981-20-1981-42 true)) (= (__SYNTHFUN_f_1981-20-1981-42 NCK_NEQ_741360_1981-20-1981-42 NCK_NEQ_505948_1981-20-1981-42 ) false)) (and (=> (and (= NCK_NEQ_505948_1981-20-1981-42 true) (= NCK_NEQ_741360_1981-20-1981-42 true)) (= (__SYNTHFUN_f_1981-20-1981-42 NCK_NEQ_741360_1981-20-1981-42 NCK_NEQ_505948_1981-20-1981-42 ) false)) (and (=> (and (= NCK_NEQ_505948_1981-20-1981-42 true) (= NCK_NEQ_741360_1981-20-1981-42 true)) (= (__SYNTHFUN_f_1981-20-1981-42 NCK_NEQ_741360_1981-20-1981-42 NCK_NEQ_505948_1981-20-1981-42 ) true)) (and (=> (and (= NCK_NEQ_505948_1981-20-1981-42 true) (= NCK_NEQ_741360_1981-20-1981-42 true)) (= (__SYNTHFUN_f_1981-20-1981-42 NCK_NEQ_741360_1981-20-1981-42 NCK_NEQ_505948_1981-20-1981-42 ) false)) (=> (and (= NCK_NEQ_741360_1981-20-1981-42 true) (= NCK_NEQ_505948_1981-20-1981-42 true)) (= (__SYNTHFUN_f_1981-20-1981-42 NCK_NEQ_741360_1981-20-1981-42 NCK_NEQ_505948_1981-20-1981-42 ) false))))))) (and (=> (and (= NCK_NEQ_741360_1981-20-1981-42 true) (= NCK_NEQ_505948_1981-20-1981-42 true)) (= (__SYNTHFUN_f_1981-20-1981-42 NCK_NEQ_741360_1981-20-1981-42 NCK_NEQ_505948_1981-20-1981-42 ) true)) (and (=> (and (= NCK_NEQ_505948_1981-20-1981-42 true) (= NCK_NEQ_741360_1981-20-1981-42 true)) (= (__SYNTHFUN_f_1981-20-1981-42 NCK_NEQ_741360_1981-20-1981-42 NCK_NEQ_505948_1981-20-1981-42 ) false)) (and (=> (and (= NCK_NEQ_741360_1981-20-1981-42 true) (= NCK_NEQ_505948_1981-20-1981-42 true)) (= (__SYNTHFUN_f_1981-20-1981-42 NCK_NEQ_741360_1981-20-1981-42 NCK_NEQ_505948_1981-20-1981-42 ) false)) (and (=> (and (= NCK_NEQ_741360_1981-20-1981-42 true) (= NCK_NEQ_505948_1981-20-1981-42 true)) (= (__SYNTHFUN_f_1981-20-1981-42 NCK_NEQ_741360_1981-20-1981-42 NCK_NEQ_505948_1981-20-1981-42 ) false)) (and (=> (and (= NCK_NEQ_505948_1981-20-1981-42 true) (= NCK_NEQ_741360_1981-20-1981-42 true)) (= (__SYNTHFUN_f_1981-20-1981-42 NCK_NEQ_741360_1981-20-1981-42 NCK_NEQ_505948_1981-20-1981-42 ) false)) (and (=> (and (= NCK_NEQ_505948_1981-20-1981-42 true) (= NCK_NEQ_741360_1981-20-1981-42 true)) (= (__SYNTHFUN_f_1981-20-1981-42 NCK_NEQ_741360_1981-20-1981-42 NCK_NEQ_505948_1981-20-1981-42 ) false)) (and (=> (and (= NCK_NEQ_505948_1981-20-1981-42 true) (= NCK_NEQ_741360_1981-20-1981-42 true)) (= (__SYNTHFUN_f_1981-20-1981-42 NCK_NEQ_741360_1981-20-1981-42 NCK_NEQ_505948_1981-20-1981-42 ) false)) (=> (and (= NCK_NEQ_741360_1981-20-1981-42 true) (= NCK_NEQ_505948_1981-20-1981-42 true)) (= (__SYNTHFUN_f_1981-20-1981-42 NCK_NEQ_741360_1981-20-1981-42 NCK_NEQ_505948_1981-20-1981-42 ) false))))))))))))))
(constraint (and (=> (and (= NCK_NEQ_741360_1981-20-1981-42 true) (= NCK_NEQ_505948_1981-20-1981-42 true)) (= (__SYNTHFUN_f_1981-20-1981-42 NCK_NEQ_741360_1981-20-1981-42 NCK_NEQ_505948_1981-20-1981-42 ) false)) (and (=> (and (= NCK_NEQ_505948_1981-20-1981-42 true) (= NCK_NEQ_741360_1981-20-1981-42 true)) (= (__SYNTHFUN_f_1981-20-1981-42 NCK_NEQ_741360_1981-20-1981-42 NCK_NEQ_505948_1981-20-1981-42 ) false)) (and (=> (and (= NCK_NEQ_741360_1981-20-1981-42 true) (= NCK_NEQ_505948_1981-20-1981-42 true)) (= (__SYNTHFUN_f_1981-20-1981-42 NCK_NEQ_741360_1981-20-1981-42 NCK_NEQ_505948_1981-20-1981-42 ) false)) (and (=> (and (= NCK_NEQ_741360_1981-20-1981-42 true) (= NCK_NEQ_505948_1981-20-1981-42 true)) (= (__SYNTHFUN_f_1981-20-1981-42 NCK_NEQ_741360_1981-20-1981-42 NCK_NEQ_505948_1981-20-1981-42 ) false)) (and (=> (and (= NCK_NEQ_505948_1981-20-1981-42 true) (= NCK_NEQ_741360_1981-20-1981-42 true)) (= (__SYNTHFUN_f_1981-20-1981-42 NCK_NEQ_741360_1981-20-1981-42 NCK_NEQ_505948_1981-20-1981-42 ) false)) (and (=> (and (= NCK_NEQ_505948_1981-20-1981-42 true) (= NCK_NEQ_741360_1981-20-1981-42 true)) (= (__SYNTHFUN_f_1981-20-1981-42 NCK_NEQ_741360_1981-20-1981-42 NCK_NEQ_505948_1981-20-1981-42 ) false)) (and (=> (and (= NCK_NEQ_505948_1981-20-1981-42 true) (= NCK_NEQ_741360_1981-20-1981-42 true)) (= (__SYNTHFUN_f_1981-20-1981-42 NCK_NEQ_741360_1981-20-1981-42 NCK_NEQ_505948_1981-20-1981-42 ) false)) (=> (and (= NCK_NEQ_741360_1981-20-1981-42 true) (= NCK_NEQ_505948_1981-20-1981-42 true)) (= (__SYNTHFUN_f_1981-20-1981-42 NCK_NEQ_741360_1981-20-1981-42 NCK_NEQ_505948_1981-20-1981-42 ) false))))))))))
(constraint (and (=> (and (= NCK_NEQ_741360_1981-20-1981-42 true) (= NCK_NEQ_505948_1981-20-1981-42 true)) (= (__SYNTHFUN_f_1981-20-1981-42 NCK_NEQ_741360_1981-20-1981-42 NCK_NEQ_505948_1981-20-1981-42 ) false)) (and (=> (and (= NCK_NEQ_505948_1981-20-1981-42 true) (= NCK_NEQ_741360_1981-20-1981-42 true)) (= (__SYNTHFUN_f_1981-20-1981-42 NCK_NEQ_741360_1981-20-1981-42 NCK_NEQ_505948_1981-20-1981-42 ) false)) (and (=> (and (= NCK_NEQ_741360_1981-20-1981-42 true) (= NCK_NEQ_505948_1981-20-1981-42 true)) (= (__SYNTHFUN_f_1981-20-1981-42 NCK_NEQ_741360_1981-20-1981-42 NCK_NEQ_505948_1981-20-1981-42 ) false)) (and (=> (and (= NCK_NEQ_741360_1981-20-1981-42 true) (= NCK_NEQ_505948_1981-20-1981-42 true)) (= (__SYNTHFUN_f_1981-20-1981-42 NCK_NEQ_741360_1981-20-1981-42 NCK_NEQ_505948_1981-20-1981-42 ) false)) (and (=> (and (= NCK_NEQ_505948_1981-20-1981-42 true) (= NCK_NEQ_741360_1981-20-1981-42 true)) (= (__SYNTHFUN_f_1981-20-1981-42 NCK_NEQ_741360_1981-20-1981-42 NCK_NEQ_505948_1981-20-1981-42 ) false)) (and (=> (and (= NCK_NEQ_505948_1981-20-1981-42 true) (= NCK_NEQ_741360_1981-20-1981-42 true)) (= (__SYNTHFUN_f_1981-20-1981-42 NCK_NEQ_741360_1981-20-1981-42 NCK_NEQ_505948_1981-20-1981-42 ) false)) (and (=> (and (= NCK_NEQ_505948_1981-20-1981-42 true) (= NCK_NEQ_741360_1981-20-1981-42 true)) (= (__SYNTHFUN_f_1981-20-1981-42 NCK_NEQ_741360_1981-20-1981-42 NCK_NEQ_505948_1981-20-1981-42 ) false)) (=> (and (= NCK_NEQ_741360_1981-20-1981-42 true) (= NCK_NEQ_505948_1981-20-1981-42 true)) (= (__SYNTHFUN_f_1981-20-1981-42 NCK_NEQ_741360_1981-20-1981-42 NCK_NEQ_505948_1981-20-1981-42 ) false))))))))))
(constraint (or (and (=> (and (= NCK_NEQ_741360_1981-20-1981-42 true) (= NCK_NEQ_505948_1981-20-1981-42 true)) (= (__SYNTHFUN_f_1981-20-1981-42 NCK_NEQ_741360_1981-20-1981-42 NCK_NEQ_505948_1981-20-1981-42 ) false)) (=> (and (= NCK_NEQ_505948_1981-20-1981-42 true) (= NCK_NEQ_741360_1981-20-1981-42 true)) (= (__SYNTHFUN_f_1981-20-1981-42 NCK_NEQ_741360_1981-20-1981-42 NCK_NEQ_505948_1981-20-1981-42 ) false))) (and (=> (and (= NCK_NEQ_741360_1981-20-1981-42 true) (= NCK_NEQ_505948_1981-20-1981-42 true)) (= (__SYNTHFUN_f_1981-20-1981-42 NCK_NEQ_741360_1981-20-1981-42 NCK_NEQ_505948_1981-20-1981-42 ) false)) (=> (and (= NCK_NEQ_505948_1981-20-1981-42 true) (= NCK_NEQ_741360_1981-20-1981-42 true)) (= (__SYNTHFUN_f_1981-20-1981-42 NCK_NEQ_741360_1981-20-1981-42 NCK_NEQ_505948_1981-20-1981-42 ) true)))))
(constraint (or (and (=> (and (= NCK_NEQ_741360_1981-20-1981-42 true) (= NCK_NEQ_505948_1981-20-1981-42 true)) (= (__SYNTHFUN_f_1981-20-1981-42 NCK_NEQ_741360_1981-20-1981-42 NCK_NEQ_505948_1981-20-1981-42 ) false)) (and (=> (and (= NCK_NEQ_505948_1981-20-1981-42 true) (= NCK_NEQ_741360_1981-20-1981-42 true)) (= (__SYNTHFUN_f_1981-20-1981-42 NCK_NEQ_741360_1981-20-1981-42 NCK_NEQ_505948_1981-20-1981-42 ) true)) (=> (and (= NCK_NEQ_505948_1981-20-1981-42 true) (= NCK_NEQ_741360_1981-20-1981-42 true)) (= (__SYNTHFUN_f_1981-20-1981-42 NCK_NEQ_741360_1981-20-1981-42 NCK_NEQ_505948_1981-20-1981-42 ) false)))) (or (and (=> (and (= NCK_NEQ_741360_1981-20-1981-42 true) (= NCK_NEQ_505948_1981-20-1981-42 true)) (= (__SYNTHFUN_f_1981-20-1981-42 NCK_NEQ_741360_1981-20-1981-42 NCK_NEQ_505948_1981-20-1981-42 ) false)) (and (=> (and (= NCK_NEQ_741360_1981-20-1981-42 true) (= NCK_NEQ_505948_1981-20-1981-42 true)) (= (__SYNTHFUN_f_1981-20-1981-42 NCK_NEQ_741360_1981-20-1981-42 NCK_NEQ_505948_1981-20-1981-42 ) false)) (and (=> (and (= NCK_NEQ_505948_1981-20-1981-42 true) (= NCK_NEQ_741360_1981-20-1981-42 true)) (= (__SYNTHFUN_f_1981-20-1981-42 NCK_NEQ_741360_1981-20-1981-42 NCK_NEQ_505948_1981-20-1981-42 ) false)) (=> (and (= NCK_NEQ_505948_1981-20-1981-42 true) (= NCK_NEQ_741360_1981-20-1981-42 true)) (= (__SYNTHFUN_f_1981-20-1981-42 NCK_NEQ_741360_1981-20-1981-42 NCK_NEQ_505948_1981-20-1981-42 ) false))))) (and (=> (and (= NCK_NEQ_741360_1981-20-1981-42 true) (= NCK_NEQ_505948_1981-20-1981-42 true)) (= (__SYNTHFUN_f_1981-20-1981-42 NCK_NEQ_741360_1981-20-1981-42 NCK_NEQ_505948_1981-20-1981-42 ) false)) (and (=> (and (= NCK_NEQ_741360_1981-20-1981-42 true) (= NCK_NEQ_505948_1981-20-1981-42 true)) (= (__SYNTHFUN_f_1981-20-1981-42 NCK_NEQ_741360_1981-20-1981-42 NCK_NEQ_505948_1981-20-1981-42 ) true)) (and (=> (and (= NCK_NEQ_505948_1981-20-1981-42 true) (= NCK_NEQ_741360_1981-20-1981-42 true)) (= (__SYNTHFUN_f_1981-20-1981-42 NCK_NEQ_741360_1981-20-1981-42 NCK_NEQ_505948_1981-20-1981-42 ) false)) (=> (and (= NCK_NEQ_505948_1981-20-1981-42 true) (= NCK_NEQ_741360_1981-20-1981-42 true)) (= (__SYNTHFUN_f_1981-20-1981-42 NCK_NEQ_741360_1981-20-1981-42 NCK_NEQ_505948_1981-20-1981-42 ) false))))))))
(check-synth)


